NAME : n40w40.001.510.tour
COMMENT : Length = 510
COMMENT : Found by LKH [Keld Helsgaun] Tue Nov  7 19:35:15 2017
TYPE : TOUR
DIMENSION : 41
TOUR_SECTION
1
11
3
33
21
20
34
28
24
35
22
14
15
32
29
30
10
31
7
2
17
18
16
27
36
25
23
12
5
6
39
9
37
4
26
19
38
8
41
40
13
-1
EOF
